data;
set K:= K1 K2 K3 K4 K5 K6 K7 ;

set F:= F1 F2 ;

set Q:= Q1 Q2 ;

param T:= 45;
param V:
	K1  K2  K3  K4  K5  K6  K7  :=
Q1	1   1   1   1   0   0   0
Q2	0   0   0   0   1   1   1
; # if resource k is of type q

param TF:=
K1 6
K2 6
K3 6
K4 6
K5 12
K6 12
K7 12
; # number of continuous time slots resource can fly

param TR:=
K1 2
K2 2
K3 2
K4 2
K5 4
K6 4
K7 4
; #  number of continuous time slots resource k needs to rest between flights

param P:=
K1 36
K2 36
K3 36
K4 36
K5 36
K6 36
K7 36
; #  number of continuous time slots a pilot can be present including rest times for resource k

param N:=
K1 4
K2 4
K3 4
K4 4
K5 1
K6 2
K7 2
; # max number of flights resource k can fly in the total time period

param A:
	K1  K2  K3  K4  K5  K6  K7  :=
1	1   1   1   1   0   1   1
2	1   1   1   1   0   1   1
3	1   1   1   1   0   1   1
4	1   1   1   1   0   1   1
5	1   1   1   1   0   1   1
6	1   1   1   1   0   1   1
7	1   1   1   1   0   1   1
8	1   1   1   1   0   1   1
9	1   1   1   1   0   1   1
10	1   1   1   1   0   1   1
11	1   1   1   1   0   1   1
12	1   1   1   1   0   1   1
13	1   1   1   1   0   1   1
14	1   1   1   1   0   1   1
15	1   1   1   1   0   1   1
16	1   1   1   1   0   1   1
17	1   1   1   1   1   1   1
18	1   1   1   1   1   1   1
19	1   1   1   1   1   1   1
20	1   1   1   1   1   1   1
21	1   1   1   1   1   1   1
22	1   1   1   1   1   1   1
23	1   1   1   1   1   1   1
24	1   1   1   1   1   1   1
25	1   1   1   1   1   1   1
26	1   1   1   1   1   1   1
27	1   1   1   1   1   1   1
28	1   1   1   1   1   1   1
29	1   1   1   1   1   1   1
30	1   1   1   1   1   1   1
31	1   1   1   1   1   1   1
32	1   1   1   1   1   1   1
33	1   1   1   1   1   1   1
34	1   1   1   1   1   1   1
35	1   1   1   1   1   1   1
36	1   1   1   1   1   1   1
37	1   1   1   1   1   1   1
38	1   1   1   1   1   1   1
39	1   1   1   1   1   1   1
40	1   1   1   1   1   1   1
41	1   1   1   1   1   1   1
42	1   1   1   1   1   1   1
43	1   1   1   1   1   1   1
44	1   1   1   1   1   1   1
45	1   1   1   1   1   1   1
; # availability of resource k in time slot t

param B:
	F1  F2  :=
Q1	1   0
Q2	0   0
; # if front f requires resources of type q

param U:
	F1  F2  :=
K1	0   0
K2	0   0
K3	0   0
K4	0   0
K5	2   2
K6	0   0
K7	0   0
; # transit time of resource

param C:=
K1 900
K2 900
K3 1500
K4 4500
K5 5500
K6 5500
K7 5500
; #  water capacity of resource k

param S:=
F1 9
F2 7
; # max number of resources that can fly at front f in the same time slot

param D:=

[*,*,F1 ]:  K1    K2    K3    K4    K5    K6    K7    :=
1           1.37  1.37  1.37  1.09  0.82  0.82  0.82
2           1.37  1.37  1.37  1.09  0.82  0.82  0.82
3           1.37  1.37  1.37  1.09  0.82  0.82  0.82
4           1.37  1.37  1.37  1.09  0.82  0.82  0.82
5           1.37  1.37  1.37  1.09  0.82  0.82  0.82
6           1.37  1.37  1.37  1.09  0.82  0.82  0.82
7           1.37  1.37  1.37  1.09  0.82  0.82  0.82
8           1.37  1.37  1.37  1.09  0.82  0.82  0.82
9           1.37  1.37  1.37  1.09  0.82  0.82  0.82
10          1.37  1.37  1.37  1.09  0.82  0.82  0.82
11          1.37  1.37  1.37  1.09  0.82  0.82  0.82
12          1.37  1.37  1.37  1.09  0.82  0.82  0.82
13          1.37  1.37  1.37  1.09  0.82  0.82  0.82
14          1.37  1.37  1.37  1.09  0.82  0.82  0.82
15          1.37  1.37  1.37  1.09  0.82  0.82  0.82
16          1.37  1.37  1.37  1.09  0.82  0.82  0.82
17          1.37  1.37  1.37  1.09  0.82  0.82  0.82
18          1.37  1.37  1.37  1.09  0.82  0.82  0.82
19          1.37  1.37  1.37  1.09  0.82  0.82  0.82
20          1.37  1.37  1.37  1.09  0.82  0.82  0.82
21          1.37  1.37  1.37  1.09  0.82  0.82  0.82
22          1.37  1.37  1.37  1.09  0.82  0.82  0.82
23          1.37  1.37  1.37  1.09  0.82  0.82  0.82
24          1.37  1.37  1.37  1.09  0.82  0.82  0.82
25          1.30  1.30  1.30  1.04  0.78  0.78  0.78
26          1.30  1.30  1.30  1.04  0.78  0.78  0.78
27          1.30  1.30  1.30  1.04  0.78  0.78  0.78
28          1.30  1.30  1.30  1.04  0.78  0.78  0.78
29          1.30  1.30  1.30  1.04  0.78  0.78  0.78
30          1.30  1.30  1.30  1.04  0.78  0.78  0.78
31          1.30  1.30  1.30  1.04  0.78  0.78  0.78
32          1.30  1.30  1.30  1.04  0.78  0.78  0.78
33          1.30  1.30  1.30  1.04  0.78  0.78  0.78
34          1.37  1.37  1.37  1.09  0.82  0.82  0.82
35          1.37  1.37  1.37  1.09  0.82  0.82  0.82
36          1.37  1.37  1.37  1.09  0.82  0.82  0.82
37          1.37  1.37  1.37  1.09  0.82  0.82  0.82
38          1.37  1.37  1.37  1.09  0.82  0.82  0.82
39          1.37  1.37  1.37  1.09  0.82  0.82  0.82
40          1.37  1.37  1.37  1.09  0.82  0.82  0.82
41          1.37  1.37  1.37  1.09  0.82  0.82  0.82
42          1.37  1.37  1.37  1.09  0.82  0.82  0.82
43          1.37  1.37  1.37  1.09  0.82  0.82  0.82
44          1.37  1.37  1.37  1.09  0.82  0.82  0.82
45          1.37  1.37  1.37  1.09  0.82  0.82  0.82

[*,*,F2 ]:  K1    K2    K3    K4    K5    K6    K7    :=
1           1.62  1.62  1.62  1.29  0.97  0.97  0.97
2           1.62  1.62  1.62  1.29  0.97  0.97  0.97
3           1.62  1.62  1.62  1.29  0.97  0.97  0.97
4           1.62  1.62  1.62  1.29  0.97  0.97  0.97
5           1.62  1.62  1.62  1.29  0.97  0.97  0.97
6           1.62  1.62  1.62  1.29  0.97  0.97  0.97
7           1.62  1.62  1.62  1.29  0.97  0.97  0.97
8           1.62  1.62  1.62  1.29  0.97  0.97  0.97
9           1.62  1.62  1.62  1.29  0.97  0.97  0.97
10          1.62  1.62  1.62  1.29  0.97  0.97  0.97
11          1.62  1.62  1.62  1.29  0.97  0.97  0.97
12          1.62  1.62  1.62  1.29  0.97  0.97  0.97
13          1.62  1.62  1.62  1.29  0.97  0.97  0.97
14          1.62  1.62  1.62  1.29  0.97  0.97  0.97
15          1.62  1.62  1.62  1.29  0.97  0.97  0.97
16          1.62  1.62  1.62  1.29  0.97  0.97  0.97
17          1.62  1.62  1.62  1.29  0.97  0.97  0.97
18          1.62  1.62  1.62  1.29  0.97  0.97  0.97
19          1.62  1.62  1.62  1.29  0.97  0.97  0.97
20          1.62  1.62  1.62  1.29  0.97  0.97  0.97
21          1.62  1.62  1.62  1.29  0.97  0.97  0.97
22          1.62  1.62  1.62  1.29  0.97  0.97  0.97
23          1.62  1.62  1.62  1.29  0.97  0.97  0.97
24          1.62  1.62  1.62  1.29  0.97  0.97  0.97
25          1.54  1.54  1.54  1.23  0.92  0.92  0.92
26          1.54  1.54  1.54  1.23  0.92  0.92  0.92
27          1.54  1.54  1.54  1.23  0.92  0.92  0.92
28          1.54  1.54  1.54  1.23  0.92  0.92  0.92
29          1.54  1.54  1.54  1.23  0.92  0.92  0.92
30          1.54  1.54  1.54  1.23  0.92  0.92  0.92
31          1.54  1.54  1.54  1.23  0.92  0.92  0.92
32          1.54  1.54  1.54  1.23  0.92  0.92  0.92
33          1.54  1.54  1.54  1.23  0.92  0.92  0.92
34          1.62  1.62  1.62  1.29  0.97  0.97  0.97
35          1.62  1.62  1.62  1.29  0.97  0.97  0.97
36          1.62  1.62  1.62  1.29  0.97  0.97  0.97
37          1.62  1.62  1.62  1.29  0.97  0.97  0.97
38          1.62  1.62  1.62  1.29  0.97  0.97  0.97
39          1.62  1.62  1.62  1.29  0.97  0.97  0.97
40          1.62  1.62  1.62  1.29  0.97  0.97  0.97
41          1.62  1.62  1.62  1.29  0.97  0.97  0.97
42          1.62  1.62  1.62  1.29  0.97  0.97  0.97
43          1.62  1.62  1.62  1.29  0.97  0.97  0.97
44          1.62  1.62  1.62  1.29  0.97  0.97  0.97
45          1.62  1.62  1.62  1.29  0.97  0.97  0.97
; # downloads resource k can do at front f in time slot t if intermediate time slot

param E:=

[*,*,F1 ]:  K1    K2    K3    K4    K5    K6    K7    :=
1           0.22  0.41  0.15  0.07  0.28  0.11  0.11
2           0.22  0.41  0.15  0.07  0.28  0.11  0.11
3           0.22  0.41  0.15  0.07  0.28  0.11  0.11
4           0.22  0.41  0.15  0.07  0.28  0.11  0.11
5           0.22  0.41  0.15  0.07  0.28  0.11  0.11
6           0.22  0.41  0.15  0.07  0.28  0.11  0.11
7           0.22  0.41  0.15  0.07  0.28  0.11  0.11
8           0.22  0.41  0.15  0.07  0.28  0.11  0.11
9           0.22  0.41  0.15  0.07  0.28  0.11  0.11
10          0.22  0.41  0.15  0.07  0.28  0.11  0.11
11          0.22  0.41  0.15  0.07  0.28  0.11  0.11
12          0.22  0.41  0.15  0.07  0.28  0.11  0.11
13          0.22  0.41  0.15  0.07  0.28  0.11  0.11
14          0.22  0.41  0.15  0.07  0.28  0.11  0.11
15          0.22  0.41  0.15  0.07  0.28  0.11  0.11
16          0.22  0.41  0.15  0.07  0.28  0.11  0.11
17          0.22  0.41  0.15  0.07  0.28  0.11  0.11
18          0.22  0.41  0.15  0.07  0.28  0.11  0.11
19          0.22  0.41  0.15  0.07  0.28  0.11  0.11
20          0.22  0.41  0.15  0.07  0.28  0.11  0.11
21          0.22  0.41  0.15  0.07  0.28  0.11  0.11
22          0.22  0.41  0.15  0.07  0.28  0.11  0.11
23          0.22  0.41  0.15  0.07  0.28  0.11  0.11
24          0.22  0.41  0.15  0.07  0.28  0.11  0.11
25          0.21  0.39  0.14  0.06  0.26  0.11  0.10
26          0.21  0.39  0.14  0.06  0.26  0.11  0.10
27          0.21  0.39  0.14  0.06  0.26  0.11  0.10
28          0.21  0.39  0.14  0.06  0.26  0.11  0.10
29          0.21  0.39  0.14  0.06  0.26  0.11  0.10
30          0.21  0.39  0.14  0.06  0.26  0.11  0.10
31          0.21  0.39  0.14  0.06  0.26  0.11  0.10
32          0.21  0.39  0.14  0.06  0.26  0.11  0.10
33          0.21  0.39  0.14  0.06  0.26  0.11  0.10
34          0.22  0.41  0.15  0.07  0.28  0.11  0.11
35          0.22  0.41  0.15  0.07  0.28  0.11  0.11
36          0.22  0.41  0.15  0.07  0.28  0.11  0.11
37          0.22  0.41  0.15  0.07  0.28  0.11  0.11
38          0.22  0.41  0.15  0.07  0.28  0.11  0.11
39          0.22  0.41  0.15  0.07  0.28  0.11  0.11
40          0.22  0.41  0.15  0.07  0.28  0.11  0.11
41          0.22  0.41  0.15  0.07  0.28  0.11  0.11
42          0.22  0.41  0.15  0.07  0.28  0.11  0.11
43          0.22  0.41  0.15  0.07  0.28  0.11  0.11
44          0.22  0.41  0.15  0.07  0.28  0.11  0.11
45          0.22  0.41  0.15  0.07  0.28  0.11  0.11

[*,*,F2 ]:  K1    K2    K3    K4    K5    K6    K7    :=
1           0.23  0.47  0.24  0.08  0.36  0.18  0.22
2           0.23  0.47  0.24  0.08  0.36  0.18  0.22
3           0.23  0.47  0.24  0.08  0.36  0.18  0.22
4           0.23  0.47  0.24  0.08  0.36  0.18  0.22
5           0.23  0.47  0.24  0.08  0.36  0.18  0.22
6           0.23  0.47  0.24  0.08  0.36  0.18  0.22
7           0.23  0.47  0.24  0.08  0.36  0.18  0.22
8           0.23  0.47  0.24  0.08  0.36  0.18  0.22
9           0.23  0.47  0.24  0.08  0.36  0.18  0.22
10          0.23  0.47  0.24  0.08  0.36  0.18  0.22
11          0.23  0.47  0.24  0.08  0.36  0.18  0.22
12          0.23  0.47  0.24  0.08  0.36  0.18  0.22
13          0.23  0.47  0.24  0.08  0.36  0.18  0.22
14          0.23  0.47  0.24  0.08  0.36  0.18  0.22
15          0.23  0.47  0.24  0.08  0.36  0.18  0.22
16          0.23  0.47  0.24  0.08  0.36  0.18  0.22
17          0.23  0.47  0.24  0.08  0.36  0.18  0.22
18          0.23  0.47  0.24  0.08  0.36  0.18  0.22
19          0.23  0.47  0.24  0.08  0.36  0.18  0.22
20          0.23  0.47  0.24  0.08  0.36  0.18  0.22
21          0.23  0.47  0.24  0.08  0.36  0.18  0.22
22          0.23  0.47  0.24  0.08  0.36  0.18  0.22
23          0.23  0.47  0.24  0.08  0.36  0.18  0.22
24          0.23  0.47  0.24  0.08  0.36  0.18  0.22
25          0.22  0.45  0.23  0.07  0.34  0.18  0.21
26          0.22  0.45  0.23  0.07  0.34  0.18  0.21
27          0.22  0.45  0.23  0.07  0.34  0.18  0.21
28          0.22  0.45  0.23  0.07  0.34  0.18  0.21
29          0.22  0.45  0.23  0.07  0.34  0.18  0.21
30          0.22  0.45  0.23  0.07  0.34  0.18  0.21
31          0.22  0.45  0.23  0.07  0.34  0.18  0.21
32          0.22  0.45  0.23  0.07  0.34  0.18  0.21
33          0.22  0.45  0.23  0.07  0.34  0.18  0.21
34          0.23  0.47  0.24  0.08  0.36  0.18  0.22
35          0.23  0.47  0.24  0.08  0.36  0.18  0.22
36          0.23  0.47  0.24  0.08  0.36  0.18  0.22
37          0.23  0.47  0.24  0.08  0.36  0.18  0.22
38          0.23  0.47  0.24  0.08  0.36  0.18  0.22
39          0.23  0.47  0.24  0.08  0.36  0.18  0.22
40          0.23  0.47  0.24  0.08  0.36  0.18  0.22
41          0.23  0.47  0.24  0.08  0.36  0.18  0.22
42          0.23  0.47  0.24  0.08  0.36  0.18  0.22
43          0.23  0.47  0.24  0.08  0.36  0.18  0.22
44          0.23  0.47  0.24  0.08  0.36  0.18  0.22
45          0.23  0.47  0.24  0.08  0.36  0.18  0.22
; # downloads resource k can do at front f in time slot t if starting or ending flight

param W:
	F1        F2        :=
1	314.56    169.38
2	1258.23   677.51
3	1258.23   677.51
4	1258.23   677.51
5	1258.23   677.51
6	1258.23   677.51
7	1258.23   677.51
8	1258.23   677.51
9	1258.23   677.51
10	1258.23   677.51
11	1258.23   677.51
12	1258.23   677.51
13	1258.23   677.51
14	1258.23   677.51
15	1258.23   677.51
16	1258.23   677.51
17	1258.23   677.51
18	1258.23   677.51
19	559.21    301.11
20	559.21    301.11
21	559.21    301.11
22	559.21    301.11
23	559.21    301.11
24	559.21    301.11
25	559.21    301.11
26	559.21    301.11
27	559.21    301.11
28	559.21    301.11
29	559.21    301.11
30	559.21    301.11
31	559.21    301.11
32	559.21    301.11
33	559.21    301.11
34	559.21    301.11
35	559.21    301.11
36	559.21    301.11
37	559.21    301.11
38	559.21    301.11
39	559.21    301.11
40	559.21    301.11
41	559.21    301.11
42	559.21    301.11
43	559.21    301.11
44	559.21    301.11
45	139.80    75.28
; # water needed at front f in time slot t

param M := 100000000;

param a1:= 10000000;

param a2:= 100;

param a3:= 0.0001;

param PR:= 
F1 1
F2 2
; #priority
